p cnf 30 30
6 4 -10 0
5 21 11 0
28 30 10 0
14 24 -26 0
18 -6 -3 0
27 -17 11 0
12 -6 -13 0
-3 25 2 0
-1 -6 7 0
-26 -16 13 0
2 1 21 0
-6 11 -7 0
-12 30 14 0
-6 14 4 0
11 -5 -28 0
-21 19 18 0
-30 -2 -26 0
23 11 17 0
22 -9 30 0
19 13 4 0
-8 26 20 0
12 18 -16 0
6 5 3 0
20 -25 10 0
-9 -24 20 0
-16 15 -19 0
-22 10 -26 0
-30 -5 -21 0
12 22 -1 0
22 26 28 0
